c --- [ banner ] -------------------------------------------------------------
c 
c CaDiCaL Radically Simplified CDCL SAT Solver
c Copyright (c) 2016-2021 A. Biere, M. Fleury, N. Froleyks
c 
c Version 1.5.2 a5f15211db36c3956764e18194dd5bd63bf3b5e6
c g++ (GCC) 9.3.0 -Wall -Wextra -O3 -DNDEBUG
c Fri Oct 21 01:27:37 EDT 2022 Linux gra-login3 3.10.0-1160.66.1.el7.x86_64 x86_64
c 
c --- [ limit ] --------------------------------------------------------------
c 
c setting conflict limit to 200000 conflicts (due to '200000')
c 
c --- [ parsing input ] ------------------------------------------------------
c 
c reading DIMACS file from '45.cubes146.adj'
c opening file to read '45.cubes146.adj'
c found 'p cnf 6160 1595482' header
c parsed 1595482 clauses in 18.96 seconds process time
c closing file '45.cubes146.adj'
c after reading 1457566824 bytes 1390.0 MB
c 
c --- [ options ] ------------------------------------------------------------
c 
c all options are set to their default value
c 
c --- [ solving ] ------------------------------------------------------------
c 
c time measured in process time since initialization
c 
c  seconds    reductions  redundant   irredundant
c          MB     restarts       trail       variables
c            level   conflicts       glue         remaining
c 
c * 18.96 1397  0 0   0    0    0  0% 0 1595422 2145 35%
c { 19.65 1433  0 0   0    0    0  0% 0 1595422 2145 35%
c i 20.58 1468 1305 0   0   11   10 43% 3 1595422 2144 35%
c i 21.76 1490 407 0   1   95   74 27% 4 1595422 2143 35%
c i 22.64 1503 349 0   5  110   88 28% 8 1595422 2135 35%
c i 23.76 1511 257 0  17  156  131 28% 13 1595422 2134 35%
c i 23.98 1512 248 0  18  162  136 28% 13 1595422 2133 35%
c i 24.34 1514 231 0  21  174  147 28% 14 1595422 2132 35%
c i 24.34 1514 229 0  21  175  147 28% 14 1595422 2131 35%
c i 25.34 1517 189 0  37  237  200 28% 22 1595422 2127 35%
c i 25.99 1520 176 0  45  264  226 28% 22 1595422 2124 34%
c - 30.92 1430 159 1  54  302  254 28% 23 393854 2124 34%
c i 31.51 1381 140 1  68  371  304 28% 26 393854 2123 34%
c i 31.72 1381 134 1  74  394  325 28% 26 393854 2122 34%
c i 32.23 1382 129 1  86  446  371 29% 28 393854 2121 34%
c i 33.31 1383 110 1  99  593  499 29% 26 393854 2120 34%
c i 33.65 1383 105 1 108  657  555 29% 27 393854 2119 34%
c i 33.69 1383 103 1 109  668  564 29% 27 393854 2118 34%
c i 33.84 1383 97 1 109  722  612 29% 26 393854 2117 34%
c i 33.91 1383 95 1 109  746  635 29% 26 393854 2116 34%
c 
c  seconds    reductions  redundant   irredundant
c          MB     restarts       trail       variables
c            level   conflicts       glue         remaining
c 
c i 33.91 1383 95 1 109  747  635 29% 26 393854 2115 34%
c } 34.30 1383 78 1 109 1001  826 29% 24 393854 2115 34%
c [ 34.30 1383  0 1 109 1001  826  0% 0 393854 2115 34%
c O 34.31 1383  1 1 109 1002  826 16% 0 393854 2115 34%
c i 34.31 1383  1 1 109 1002  826 16% 0 393854 2097 34%
c i 34.66 1383 22 1 109 1233 1004 34% 18 393854 2096 34%
c - 35.23 1527 22 2 109 1259  922 34% 18 393606 2096 34%
c i 35.36 1527 21 2 109 1348  990 34% 18 393606 2095 34%
c - 36.20 1527 19 3 110 2694 1448 32% 16 393603 2095 34%
c ] 36.62 1527 20 3 110 3001 1664 49% 17 393603 2095 34%
c { 36.62 1527 78 3 110 3001 1664 85% 24 393603 2095 34%
c F 36.65 1527 78 3 110 3003 1666 85% 24 393603 2095 34%
c i 37.08 1527 67 3 110 3258 1859 77% 22 393603 2093 34%
c i 37.09 1527 67 3 110 3262 1862 77% 22 393603 2092 34%
c i 37.10 1527 66 3 110 3276 1872 76% 22 393603 2091 34%
c i 37.13 1527 66 3 110 3281 1876 76% 22 393603 2090 34%
c i 37.14 1527 66 3 110 3285 1878 76% 22 393603 2089 34%
c i 37.16 1527 66 3 110 3293 1882 76% 22 393603 2088 34%
c i 37.37 1527 56 3 110 3662 2138 68% 21 393603 2087 34%
c i 38.55 1527 55 3 143 3946 2374 64% 22 393603 2086 34%
c 
c  seconds    reductions  redundant   irredundant
c          MB     restarts       trail       variables
c            level   conflicts       glue         remaining
c 
c i 38.56 1527 55 3 144 3948 2375 64% 22 393603 2085 34%
c - 40.11 1524 49 4 199 4614 2065 58% 21 393573 2085 34%
c i 40.41 1524 47 4 201 4923 2305 57% 21 393573 2084 34%
c i 40.51 1524 47 4 201 4968 2341 56% 21 393573 2083 34%
c p 43.27 1524 47 4 207 5003 4677 56% 21 393555 2025 33%
c d 43.70 1524 47 4 207 5003 4633 56% 21 306328 2023 33%
c # 45.19 1524 41 4 262 6006 5233 53% 20 306328 2023 33%
c } 45.44 1524 36 4 262 7003 5956 51% 19 306328 2023 33%
c [ 45.44 1524 20 4 262 7003 5956 49% 17 306328 2023 33%
c - 45.67 1455 20 5 262 7008 2806 49% 17 306328 2023 33%
c - 46.52 1350 20 6 264 9683 3112 44% 17 306328 2023 33%
c I 46.70 1350 20 6 264 10011 3324 44% 17 306328 2023 33%
c - 52.57 1350 22 7 266 12803 3855 44% 18 306328 2023 33%
c ] 56.48 1350 23 7 267 15003 5518 43% 18 306328 2023 33%
c { 56.48 1350 36 7 267 15003 5518 51% 19 306328 2023 33%
c 2 56.54 1350 36 7 267 15003 6346 51% 19 306327 2023 33%
c p 58.25 1350 36 7 267 15003 7950 51% 19 306327 2023 33%
c B 58.51 1350 37 7 267 15014 7960 51% 19 306327 2023 33%
c - 60.24 1351 33 8 294 16371 4839 50% 19 306327 2023 33%
c s 67.43 1351 32 8 514 19080 6743 48% 19 303080 2023 33%
c 
c  seconds    reductions   redundant   irredundant
c          MB     restarts        trail       variables
c            level    conflicts       glue         remaining
c 
c v 72.83 1351 32 8 514 19080 6743 48% 19 303069 2023 33%
c w 72.99 1351 32 8 514 19080 6739 48% 19 303069 2023 33%
c t 73.00 1351 32 8 514 19080 6732 48% 19 303059 2023 33%
c e 73.94 1352 32 8 514 19080 6142 48% 19 300729 698 11%
c s 74.05 1352 32 8 514 19080 6142 48% 19 296569 698 11%
c - 77.00 1355 31 9 559 20386 5232 69% 19 296569 698 11%
c W 78.28 1355 31 9 606 21016 5749 70% 19 296569 698 11%
c - 83.09 1355 29 10 762 24802 5589 69% 19 296569 698 11%
c F 86.16 1355 26 10 774 28022 7432 69% 17 296569 698 11%
c - 87.50 1355 25 11 791 29660 6050 70% 17 296569 698 11%
c 3 87.64 1355 25 11 791 30003 6606 70% 17 296569 698 11%
c 3 87.64 1355 25 11 791 30003 6698 70% 17 296569 698 11%
c d 87.79 1355 25 11 791 30003 6673 70% 17 296560 697 11%
c 2 87.81 1355 25 11 791 30003 6672 70% 17 296560 697 11%
c p 90.47 1355 25 11 791 30003 7922 70% 17 296560 696 11%
c } 92.22 1355 25 11 875 31004 8631 70% 17 296560 696 11%
c [ 92.22 1355 23 11 875 31004 8631 130% 18 296560 696 11%
c - 95.48 1355 21 12 877 34962 6842 110% 17 296557 696 11%
c B 96.02 1355 21 12 878 36023 7632 107% 17 296557 696 11%
c - 97.63 1355 24 13 881 40704 7509 97% 20 296557 696 11%
c 
c  seconds     reductions     redundant   irredundant
c           MB      restarts         trail       variables
c             level     conflicts        glue        remaining
c 
c W 100.41 1355 25 13 882 45024 10355 91% 21 296557 696 11%
c - 101.18 1355 25 14 883 46886 7764 89% 21 296557 696 11%
c p 103.60 1355 26 14 883 50003 11300 87% 22 296557 696 11%
c - 104.95 1355 27 15 883 53510 8625 85% 23 296557 696 11%
c s 105.24 1355 27 15 883 54004 8955 85% 23 293198 696 11%
c v 108.98 1355 27 15 883 54004 8955 85% 23 293177 696 11%
c t 109.16 1355 27 15 883 54004 8951 85% 23 293177 696 11%
c e 110.08 1355 27 15 883 54004 8943 85% 23 293173 692 11%
c s 110.23 1355 27 15 883 54004 8943 85% 23 289668 692 11%
c O 111.76 1355 27 15 884 55025 9652 84% 23 289668 692 11%
c - 114.79 1355 26 16 888 60577 8791 82% 22 289668 692 11%
c ] 116.04 1355 27 16 890 63004 10422 81% 23 289668 692 11%
c { 116.04 1355 25 16 890 63004 10422 70% 17 289668 692 11%
c B 118.46 1355 24 16 967 66026 12279 71% 17 289668 692 11%
c - 120.40 1355 24 17 1045 68033 9424 71% 17 289668 692 11%
c p 125.41 1355 22 17 1121 75005 15156 71% 16 289668 692 11%
c - 127.03 1355 22 18 1163 75931 9618 71% 16 289668 692 11%
c W 131.27 1355 22 18 1354 78028 11215 71% 16 289668 692 11%
c - 137.74 1355 22 19 1727 84264 10942 71% 16 289668 692 11%
c # 141.04 1355 22 19 1877 91032 15203 71% 16 289668 692 11%
c 
c  seconds     reductions      redundant   irredundant
c           MB      restarts          trail       variables
c             level      conflicts        glue        remaining
c 
c - 141.84 1355 21 20 1902 93035 11218 71% 16 289668 692 11%
c - 145.95 1355 20 21 2027 102245 11493 71% 16 289668 692 11%
c p 153.10 1355 21 21 2323 105005 15500 70% 16 289668 692 11%
c B 153.30 1355 21 21 2323 105033 15520 70% 16 289668 692 11%
c s 154.41 1355 21 21 2354 106263 16371 70% 16 288342 692 11%
c v 157.97 1355 21 21 2354 106263 16371 70% 16 288332 692 11%
c w 158.29 1355 21 21 2354 106263 16369 70% 16 288332 692 11%
c t 158.30 1355 21 21 2354 106263 16366 70% 16 288332 692 11%
c s 159.39 1355 21 21 2354 106263 16366 70% 16 286598 692 11%
c - 167.20 1355 21 22 2667 111893 13263 70% 16 286598 692 11%
c W 170.58 1355 20 22 2691 120036 18006 70% 15 286598 692 11%
c - 173.24 1355 20 23 2833 121948 13149 70% 15 286598 692 11%
c } 175.83 1355 19 23 2935 127006 15996 70% 15 286598 692 11%
c [ 175.83 1355 27 23 2935 127006 15996 81% 23 286598 692 11%
c - 177.16 1355 25 24 2937 132440 13095 80% 22 286598 692 11%
c B 177.97 1355 25 24 2939 136038 15039 79% 21 286598 692 11%
c p 181.14 1355 28 24 2942 140005 19614 78% 23 286598 692 11%
c - 182.58 1355 29 25 2942 143369 14413 78% 24 286598 692 11%
c W 186.33 1355 31 25 2944 153040 21489 77% 26 286598 692 11%
c - 186.82 1355 32 26 2944 154742 15923 76% 26 286598 692 11%
c 
c  seconds     reductions       redundant   irredundant
c           MB      restarts           trail       variables
c             level      conflicts         glue        remaining
c 
c ] 187.43 1355 32 26 2944 157084 17405 76% 27 286598 692 11%
c 1 187.43 1355 32 26 2944 157084 17405 76% 27 286598 692 11%
c 
c --- [ writing output ] -----------------------------------------------------
c 
c writing simplified CNF to DIMACS file 'simp/45.cubes146.adj.simp1'
c * 187.43 1355 32 26 2944 157084 17405 76% 27 286598 692 11%
c opening file to write 'simp/45.cubes146.adj.simp1'
c writing 'p cnf 6160 286598' header
c closing file 'simp/45.cubes146.adj.simp1'
c after writing 117626765 bytes 112.2 MB
c wrote 286598 clauses in 0.95 seconds process time
c 
c --- [ writing extension ] --------------------------------------------------
c 
c writing extension stack to 'simp/45.cubes146.adj.ext1'
c opening file to write 'simp/45.cubes146.adj.ext1'
c closing file 'simp/45.cubes146.adj.ext1'
c after writing 87186 bytes 0.1 MB
c wrote 3952 witnesses in 0.58 seconds process time
c 
c --- [ result ] -------------------------------------------------------------
c 
s SATISFIABLE
c 
c --- [ run-time profiling ] -------------------------------------------------
c 
c process time taken by individual solving procedures
c (percentage relative to process time for solving)
c 
c       135.38   80.36% search
c        93.21   55.32% unstable
c        38.23   22.70% stable
c        33.09   19.64% simplify
c        18.96   11.25% parse
c        13.28    7.88% vivify
c        11.98    7.11% probe
c         5.20    3.09% elim
c         3.24    1.93% walk
c         0.96    0.57% subsume
c         0.69    0.41% lucky
c         0.26    0.15% ternary
c   =================================
c       168.47   89.16% solve
c 
c last line shows process time for solving
c (percentage relative to total process time)
c 
c --- [ statistics ] ---------------------------------------------------------
c 
c chronological:             27078        17.24 %  of conflicts
c conflicts:                157084       932.42    per second
c decisions:                274269      1628.01    per second
c eliminated:                 1329        21.57 %  of all variables
c fixed:                       986        16.01 %  of all variables
c learned:                  153739        97.87 %  per conflict
c learned_lits:           22139822       100.00 %  learned literals
c minimized:                     0         0.00 %  learned literals
c shrunken:               14386296        64.98 %  learned literals
c minishrunken:            1530986         6.92 %  learned literals
c propagations:           10148446         0.06 M  per second
c reduced:                   84105        53.54 %  per conflict
c rephased:                     17      9240.24    interval
c restarts:                   2944        53.36    interval
c stabilizing:                   4        45.89 %  of conflicts
c substituted:                   9         0.15 %  of all variables
c subsumed:                  69205         1.92 %  of all clauses
c strengthened:              11635         0.32 %  of all clauses
c ternary:                    3032         0.65 %  of resolved
c vivified:                     61         0.00 %  of all clauses
c walked:                        5     31416.80    interval
c weakened:                   2966         3.06    average size
c 
c seconds are measured in process time for solving
c 
c --- [ resources ] ----------------------------------------------------------
c 
c total process time since initialization:       188.95    seconds
c total real time since initialization:         4000.74    seconds
c maximum resident set size of process:         1670.93    MB
c 
c --- [ shutting down ] ------------------------------------------------------
c 
c exit 10
WARNING! DIMACS header mismatch: wrong number of variables.
============================[ Problem Statistics ]=============================
|                                                                             |
|  Number of variables:          3498                                         |
|  Number of clauses:          286600                                         |
|  Parse time:                   1.63 s                                       |
|  Simplification time:          0.03 s                                       |
|                                                                             |
============================[ Search Statistics ]====================================================
| Conflicts |          ORIGINAL         |          LEARNT          | Num Sols |      SUBGRAPHS      |
|           |    Vars  Clauses Literals |    Limit  Clauses Lit/Cl |          | Canonical Noncanon. |
=====================================================================================================
|       103 |    3395   286603 25545842 |     2000      103     98 |        0 |        13         3 |
|       321 |    3395   286671 25546901 |     2000      321     75 |        0 |        33        71 |
|       624 |    3395   286749 25547735 |     2000      624     71 |        0 |        45       149 |
|      1060 |    3395   286848 25550211 |     2000     1060     71 |        0 |        59       248 |
|      1763 |    3395   287045 25552982 |     2000     1763     67 |        0 |        90       445 |
|      2599 |    3395   287122 25554263 |     3601     1600     42 |        0 |       134       522 |
|      3792 |    3395   287176 25554759 |     3601     2793     55 |        0 |       152       576 |
|      5514 |    3395   287190 25555022 |     5003     2717     45 |        0 |       164       590 |
|      8106 |    3395   287220 25555718 |     6306     2812     31 |        0 |       173       620 |
|     11992 |    3395   287262 25556372 |     7553     3545     27 |        0 |       190       662 |
|     17856 |    3395   287360 25558218 |     8786     5642     39 |        0 |       219       760 |
|     27148 |    3395   288003 25566450 |    11203     5551     22 |        0 |       378      1403 |
|     40737 |    3395   288618 25576987 |    13614     7351     24 |        0 |       551      2018 |
|     60570 |    3395   288990 25582058 |    16013    12983     45 |        0 |       678      2390 |
|     90539 |    3395   289767 25594073 |    19610    17149     44 |        0 |       886      3167 |
|    134701 |    3395   290140 25600465 |    24412    18513     39 |        0 |       985      3540 |
|    200837 |    3395   290592 25609021 |    30410    17647     28 |        0 |      1121      3992 |
|    299725 |    3395   290954 25616953 |    36419    34544     48 |        0 |      1229      4354 |
|    447745 |    3395   291185 25622775 |    44809    42554     48 |        0 |      1289      4585 |
|    669965 |    3395   291722 25636057 |    55609    41574     40 |        0 |      1436      5122 |
|   1003267 |    3395   292499 25658262 |    68818    36085     26 |        0 |      1577      5899 |
|   1502982 |    3395   293426 25680088 |    84420    41802     22 |        0 |      1785      6826 |
|   2252334 |    3395   294596 25710641 |   102421    95155     48 |        0 |      1997      7996 |
|   3376118 |    3395   296106 25748109 |   126408    80926     35 |        0 |      2249      9506 |
|   5062321 |    3395   298898 25817762 |   155214    84735     25 |        0 |      2759     12298 |
|   7590658 |    3300   221960 20509307 |   183238   112296     37 |        0 |      3313     15519 |
=====================================================================================================
Number of solutions   : 0
Canonical subgraphs   : 3349           (7 /sec)
          order  3    : 1              (200000 /sec)
          order  4    : 1              (500000 /sec)
          order  5    : 1              (200000 /sec)
          order  6    : 1              (58824 /sec)
          order  7    : 1              (9091 /sec)
          order  8    : 1              (1006 /sec)
          order  9    : 2              (150 /sec)
          order 10    : 5              (28 /sec)
          order 11    : 14             (7 /sec)
          order 12    : 33             (4 /sec)
          order 13    : 203            (3 /sec)
          order 14    : 1222           (7 /sec)
          order 15    : 1088           (7 /sec)
          order 16    : 690            (7 /sec)
          order 17    : 55             (7 /sec)
          order 18    : 29             (6 /sec)
          order 19    : 2              (6 /sec)
          order 20    : 0              (-nan /sec)
          order 21    : 0              (-nan /sec)
          order 22    : 0              (-nan /sec)
Noncanonical subgraphs: 15777          (335 /sec)
          order  3    : 0              (-nan /sec)
          order  4    : 0              (-nan /sec)
          order  5    : 0              (-nan /sec)
          order  6    : 0              (-nan /sec)
          order  7    : 0              (-nan /sec)
          order  8    : 0              (-nan /sec)
          order  9    : 0              (-nan /sec)
          order 10    : 0              (-nan /sec)
          order 11    : 0              (-nan /sec)
          order 12    : 0              (-nan /sec)
          order 13    : 753            (7952 /sec)
          order 14    : 4626           (3061 /sec)
          order 15    : 8684           (450 /sec)
          order 16    : 636            (457 /sec)
          order 17    : 1040           (46 /sec)
          order 18    : 32             (17 /sec)
          order 19    : 6              (18 /sec)
          order 20    : 0              (-nan /sec)
          order 21    : 0              (-nan /sec)
Canonicity checking   : 508.67 s
Noncanonicity checking: 47.1509 s
Total canonicity time : 555.821 s
database reductions   : 158
restarts              : 12319
conflicts             : 7804677        (2219 /sec)
decisions             : 9828627        (0.00 % random) (2794 /sec)
propagations          : 371113607      (105498 /sec)
conflict literals     : 573101722      (59.33 % deleted)
actual reward         : 0.276157
Memory used           : 396.00 MB
CPU time              : 3517.74 s

UNSATISFIABLE
